GPU_version/outputs/rc208.out
Total number of lines in the file: 110
Total number of nodes including depot: 101
Customer 1: (40, 50), Demand: 0, Time Window: [0, 960], Service Time: 0
Customer 2: (25, 85), Demand: 20, Time Window: [388, 911], Service Time: 10
Customer 3: (22, 75), Demand: 30, Time Window: [30, 546], Service Time: 10
Customer 4: (22, 85), Demand: 10, Time Window: [353, 708], Service Time: 10
Customer 5: (20, 80), Demand: 40, Time Window: [425, 913], Service Time: 10
calling MST kernel
Post Processing Route
Post 2 opt Processing Route
2-opt between 9 and 13 improved cost from 1249.00 to 1244.45
Elapsed time: 0.657451 seconds
Final Route: 
Route #1: 90 65 66 83 82 99 52 57 86 74 87 59 
Route #2: 97 58 75 77 25 
Route #3: 23 21 48 18 19 49 20 22 24 
Route #4: 69 98 53 88 55 100 70 60 78 73 79 
Route #5: 7 8 46 4 45 5 3 1 6 2 
Route #6: 12 14 47 17 15 16 11 10 9 13 
Route #7: 80 91 92 94 93 
Route #8: 71 96 54 72 41 39 38 37 36 35 
Route #9: 40 42 44 43 81 61 68 
Route #10: 95 62 50 34 31 29 27 26 28 30 32 33 67 
Route #11: 84 85 63 76 89 51 56 64 
Route #12: Total Distance: 1249
Final route is valid
