outputs/rc208.txt.out
filename: RC208
Vehicles: 25, Capacity: 1000
Total customers : 101
No of routes: 7
Route #1: 90 69 98 88 60 78 73 79 7 6 2 4 46 8 45 5 3 1
Route #2: 9 13 10 11 15 16 17 47 14 12 53 55 100 70
Route #3: 65 66 83 82 99 52 86 74 87 59 97 58
Route #4: 75 77 25 23 21 48 18 19 49 20 22 24 57 91 80
Route #5: 92 95 62 50 34 31 29 27 26 28 30 32 33 67 56
Route #6: 64 51 76 89 63 85 84 94 93 71 72 35 36 37 38 39 41 54 96
Route #7: 81 40 43 44 42 61 68
Cost 988
